resources = [2,3,3,3,1,2];
horizon = 15;
norders = 8;
dist = [100,30,20,15,20,35,25,150];
weight = [HEAVY,ULTRA,LIGHT,MEDIUM,MEDIUM,LIGHT,HEAVY,HEAVY];
packtime = [1,2,3,5];
available = [10,0,3,5,7,5,0,2];
value = [2,5,3,5,7,8,7,7];
ndrones = 4;
arrival = [0,3,6,8];
charge  = [0,10,0,10];
